NAME : mtspf.pid4587.gtsp.241592041.tour
COMMENT : Length = 241592041
COMMENT : Found by LKH [Keld Helsgaun] Tue Feb 18 20:04:32 2025
TYPE : TOUR
DIMENSION : 135
TOUR_SECTION
1
13
14
5
70
71
68
69
8
112
113
114
115
29
30
31
28
12
40
41
42
43
10
3
6
119
116
117
118
98
99
96
97
104
105
106
107
81
82
83
80
9
88
89
90
91
2
62
63
60
61
130
131
128
129
87
84
85
86
18
19
16
17
65
66
67
64
132
133
134
135
121
122
123
120
11
36
37
38
39
57
58
59
56
54
55
52
53
7
23
20
21
22
127
124
125
126
26
27
24
25
110
111
108
109
103
100
101
102
94
95
92
93
51
48
49
50
4
35
32
33
34
74
75
72
73
15
46
47
44
45
79
76
77
78
-1
EOF
